35 306 5
0 3 1
0 4 1
0 5 1
0 6 1
0 7 1
0 9 1
0 10 1
0 11 1
0 12 1
0 14 1
0 16 1
0 19 1
0 21 1
0 22 1
0 25 1
0 31 1
0 32 1
0 33 1
0 34 1
1 2 1
1 4 1
1 5 1
1 6 1
1 8 1
1 10 1
1 11 1
1 15 1
1 16 1
1 17 1
1 18 1
1 19 1
1 20 1
1 22 1
1 25 1
1 28 1
1 32 1
1 33 1
2 3 1
2 4 1
2 5 1
2 7 1
2 11 1
2 15 1
2 17 1
2 20 1
2 22 1
2 24 1
2 27 1
3 7 1
3 8 1
3 10 1
3 11 1
3 12 1
3 14 1
3 16 1
3 18 1
3 19 1
3 22 1
3 24 1
3 25 1
3 26 1
3 27 1
3 28 1
3 30 1
3 32 1
4 5 1
4 9 1
4 10 1
4 13 1
4 17 1
4 18 1
4 20 1
4 22 1
4 27 1
4 28 1
4 31 1
4 32 1
4 34 1
5 6 1
5 8 1
5 10 1
5 13 1
5 14 1
5 17 1
5 18 1
5 19 1
5 20 1
5 24 1
5 25 1
5 26 1
5 27 1
5 28 1
5 30 1
5 31 1
5 33 1
6 8 1
6 12 1
6 14 1
6 16 1
6 18 1
6 20 1
6 22 1
6 25 1
6 26 1
6 27 1
6 33 1
7 8 1
7 9 1
7 12 1
7 13 1
7 16 1
7 17 1
7 18 1
7 21 1
7 22 1
7 23 1
7 24 1
7 25 1
7 29 1
7 31 1
7 34 1
8 9 1
8 10 1
8 13 1
8 18 1
8 19 1
8 20 1
8 21 1
8 23 1
8 25 1
8 27 1
8 30 1
8 31 1
8 33 1
8 34 1
9 12 1
9 13 1
9 16 1
9 17 1
9 22 1
9 26 1
9 27 1
9 29 1
9 31 1
9 33 1
10 11 1
10 12 1
10 13 1
10 14 1
10 17 1
10 20 1
10 22 1
10 23 1
10 25 1
10 26 1
10 27 1
10 28 1
10 29 1
10 30 1
10 32 1
10 33 1
10 34 1
11 12 1
11 13 1
11 16 1
11 21 1
11 22 1
11 28 1
11 30 1
11 31 1
12 13 1
12 14 1
12 15 1
12 17 1
12 18 1
12 19 1
12 21 1
12 22 1
12 23 1
12 28 1
12 29 1
12 32 1
13 15 1
13 16 1
13 17 1
13 18 1
13 19 1
13 21 1
13 23 1
13 25 1
13 26 1
13 27 1
13 28 1
13 29 1
13 32 1
13 33 1
14 17 1
14 18 1
14 20 1
14 26 1
14 28 1
14 29 1
14 30 1
14 31 1
14 33 1
14 34 1
15 16 1
15 19 1
15 20 1
15 22 1
15 23 1
15 24 1
15 25 1
15 26 1
15 28 1
15 29 1
15 31 1
15 32 1
16 18 1
16 22 1
16 25 1
16 26 1
16 28 1
16 32 1
16 33 1
16 34 1
17 19 1
17 20 1
17 24 1
17 25 1
17 28 1
17 29 1
17 30 1
17 32 1
18 20 1
18 21 1
18 24 1
18 28 1
18 29 1
18 33 1
19 20 1
19 21 1
19 22 1
19 23 1
19 26 1
19 28 1
19 29 1
19 32 1
20 21 1
20 23 1
20 24 1
20 31 1
20 32 1
21 22 1
21 24 1
21 25 1
21 28 1
21 30 1
21 31 1
21 32 1
21 33 1
22 24 1
22 26 1
22 27 1
22 28 1
22 29 1
22 30 1
22 31 1
22 33 1
23 25 1
23 27 1
23 28 1
23 29 1
23 32 1
24 26 1
24 28 1
24 29 1
24 30 1
24 31 1
24 32 1
25 27 1
25 29 1
25 32 1
25 33 1
25 34 1
26 29 1
26 30 1
26 31 1
26 34 1
27 28 1
27 29 1
27 30 1
27 32 1
28 29 1
28 30 1
28 31 1
28 34 1
29 31 1
29 32 1
29 33 1
30 31 1
30 33 1
31 32 1
31 34 1
32 34 1
33 34 1
1 11 23 26 33